Maximize
+ 150 G_1_5+ 200 D_1_5+ 1000 J_4_5+ 150 G_4_5+ 200 D_4_5+ 1000 J_7_6+ 150 G_7_6+ 200 D_7_6+ 1000 J_10_6+ 150 G_10_6+ 200 D_10_6
Subject To
+ G_1_2 + G_2_1 + D_1_2 + D_2_1 + J_1_2 + J_2_1 <=165
+ G_1_3 + G_3_1 + D_1_3 + D_3_1 + J_1_3 + J_3_1 <=165
+ G_1_5 + G_5_1 + D_1_5 + D_5_1 + J_1_5 + J_5_1 <=165
+ G_2_1 + G_1_2 + D_2_1 + D_1_2 + J_2_1 + J_1_2 <=165
+ G_2_7 + G_7_2 + D_2_7 + D_7_2 + J_2_7 + J_7_2 <=165
+ G_2_8 + G_8_2 + D_2_8 + D_8_2 + J_2_8 + J_8_2 <=165
+ G_3_1 + G_1_3 + D_3_1 + D_1_3 + J_3_1 + J_1_3 <=165
+ G_3_4 + G_4_3 + D_3_4 + D_4_3 + J_3_4 + J_4_3 <=165
+ G_3_9 + G_9_3 + D_3_9 + D_9_3 + J_3_9 + J_9_3 <=165
+ G_4_3 + G_3_4 + D_4_3 + D_3_4 + J_4_3 + J_3_4 <=165
+ G_4_5 + G_5_4 + D_4_5 + D_5_4 + J_4_5 + J_5_4 <=165
+ G_4_9 + G_9_4 + D_4_9 + D_9_4 + J_4_9 + J_9_4 <=165
+ G_5_1 + G_1_5 + D_5_1 + D_1_5 + J_5_1 + J_1_5 <=165
+ G_5_4 + G_4_5 + D_5_4 + D_4_5 + J_5_4 + J_4_5 <=165
+ G_5_6 + G_6_5 + D_5_6 + D_6_5 + J_5_6 + J_6_5 <=165
+ G_6_5 + G_5_6 + D_6_5 + D_5_6 + J_6_5 + J_5_6 <=165
+ G_6_7 + G_7_6 + D_6_7 + D_7_6 + J_6_7 + J_7_6 <=165
+ G_6_10 + G_10_6 + D_6_10 + D_10_6 + J_6_10 + J_10_6 <=165
+ G_7_2 + G_2_7 + D_7_2 + D_2_7 + J_7_2 + J_2_7 <=165
+ G_7_6 + G_6_7 + D_7_6 + D_6_7 + J_7_6 + J_6_7 <=165
+ G_7_8 + G_8_7 + D_7_8 + D_8_7 + J_7_8 + J_8_7 <=165
+ G_8_2 + G_2_8 + D_8_2 + D_2_8 + J_8_2 + J_2_8 <=165
+ G_8_7 + G_7_8 + D_8_7 + D_7_8 + J_8_7 + J_7_8 <=165
+ G_8_12 + G_12_8 + D_8_12 + D_12_8 + J_8_12 + J_12_8 <=165
+ G_9_3 + G_3_9 + D_9_3 + D_3_9 + J_9_3 + J_3_9 <=165
+ G_9_4 + G_4_9 + D_9_4 + D_4_9 + J_9_4 + J_4_9 <=165
+ G_9_11 + G_11_9 + D_9_11 + D_11_9 + J_9_11 + J_11_9 <=165
+ G_10_6 + G_6_10 + D_10_6 + D_6_10 + J_10_6 + J_6_10 <=165
+ G_10_11 + G_11_10 + D_10_11 + D_11_10 + J_10_11 + J_11_10 <=165
+ G_10_12 + G_12_10 + D_10_12 + D_12_10 + J_10_12 + J_12_10 <=165
+ G_11_9 + G_9_11 + D_11_9 + D_9_11 + J_11_9 + J_9_11 <=165
+ G_11_10 + G_10_11 + D_11_10 + D_10_11 + J_11_10 + J_10_11 <=165
+ G_11_12 + G_12_11 + D_11_12 + D_12_11 + J_11_12 + J_12_11 <=165
+ G_12_8 + G_8_12 + D_12_8 + D_8_12 + J_12_8 + J_8_12 <=165
+ G_12_10 + G_10_12 + D_12_10 + D_10_12 + J_12_10 + J_10_12 <=165
+ G_12_11 + G_11_12 + D_12_11 + D_11_12 + J_12_11 + J_11_12 <=165
